
Log started (V12.6.3.0) Tue Jul 12 11:50:31 2016


Problem 'test.lp' read.
Read time = 0.01 sec. (0.07 ticks)
Found incumbent of value 4959.000000 after 0.00 sec. (0.02 ticks)
Tried aggregator 1 time.
MIP Presolve eliminated 53 rows and 1 columns.
Reduced MIP has 48 rows, 99 columns, and 2379 nonzeros.
Reduced MIP has 99 binaries, 0 generals, 0 SOSs, and 0 indicators.
Presolve time = 0.00 sec. (0.95 ticks)
Probing time = 0.00 sec. (0.04 ticks)
Tried aggregator 1 time.
Reduced MIP has 48 rows, 99 columns, and 2379 nonzeros.
Reduced MIP has 99 binaries, 0 generals, 0 SOSs, and 0 indicators.
Presolve time = 0.00 sec. (0.69 ticks)
Probing time = 0.00 sec. (0.04 ticks)
MIP emphasis: balance optimality and feasibility.
MIP search method: dynamic search.
Parallel mode: deterministic, using up to 32 threads.
Root relaxation solution time = 0.01 sec. (1.49 ticks)

        Nodes                                         Cuts/
   Node  Left     Objective  IInf  Best Integer    Best Bound    ItCnt     Gap

*     0+    0                         4959.0000       52.0000            98.95%
*     0+    0                          193.0000       52.0000            73.06%
      0     0      144.8924    37      193.0000      144.8924       81   24.93%
      0     0      146.7885    33      193.0000      Fract: 1      105   23.94%
      0     0      147.7876    32      193.0000   ZeroHalf: 1      137   23.43%
      0     0      148.1322    32      193.0000   ZeroHalf: 1      154   23.25%
*     0+    0                          189.0000      148.1322            21.62%
      0     2      148.1322    32      189.0000      148.1322      154   21.62%
Elapsed time = 0.20 sec. (20.62 ticks, tree = 0.01 MB, solutions = 3)
*   134    11      integral     0      188.0000      150.7705     2009   19.80%

Zero-half cuts applied:  2
Gomory fractional cuts applied:  1

Root node processing (before b&c):
  Real time             =    0.18 sec. (20.38 ticks)
Parallel b&c, 32 threads:
  Real time             =    1.75 sec. (64.92 ticks)
  Sync time (average)   =    0.49 sec.
  Wait time (average)   =    1.42 sec.
                          ------------
Total (root+branch&cut) =    1.92 sec. (85.30 ticks)

Solution pool: 4 solutions saved.

MIP - Integer optimal solution:  Objective =  1.8800000000e+02
Solution time =    1.94 sec.  Iterations = 4527  Nodes = 299
Deterministic time = 85.30 ticks  (44.03 ticks/sec)


Incumbent solution
Variable Name           Solution Value
a0                            1.000000
a36                           1.000000
a71                           1.000000
a77                           1.000000
All other variables matching '*' are 0.
